n = 20
Q1 = [0 28 30 18 11 22 24 46 36 38 47 22 50 12 48 31 21 32 41 7; 0 0 5 50 14 37 47 13 29 29 37 38 14 8 44 12 35 6 18 36; 0 0 0 22 23 15 17 21 29 32 18 26 18 32 48 43 16 16 41 48; 0 0 0 0 28 15 14 27 39 15 23 43 6 17 7 35 8 29 40 41; 0 0 0 0 0 33 14 43 21 47 10 6 18 45 27 43 44 35 42 35; 0 0 0 0 0 0 13 46 32 36 38 46 16 8 5 27 21 17 12 17; 0 0 0 0 0 0 0 29 15 44 12 33 11 7 20 14 10 18 27 28; 0 0 0 0 0 0 0 0 43 37 10 38 11 38 17 16 17 8 7 38; 0 0 0 0 0 0 0 0 0 23 45 14 27 37 15 41 12 49 31 33; 0 0 0 0 0 0 0 0 0 0 10 50 28 34 24 5 34 46 43 25; 0 0 0 0 0 0 0 0 0 0 0 34 44 30 10 47 24 37 36 25; 0 0 0 0 0 0 0 0 0 0 0 0 16 8 24 11 6 48 26 22; 0 0 0 0 0 0 0 0 0 0 0 0 0 7 8 15 17 17 41 32; 0 0 0 0 0 0 0 0 0 0 0 0 0 0 24 47 20 13 36 36; 0 0 0 0 0 0 0 0 0 0 0 0 0 0 0 42 41 41 15 31; 0 0 0 0 0 0 0 0 0 0 0 0 0 0 0 0 46 26 17 10; 0 0 0 0 0 0 0 0 0 0 0 0 0 0 0 0 0 19 14 26; 0 0 0 0 0 0 0 0 0 0 0 0 0 0 0 0 0 0 41 27; 0 0 0 0 0 0 0 0 0 0 0 0 0 0 0 0 0 0 0 49; 0 0 0 0 0 0 0 0 0 0 0 0 0 0 0 0 0 0 0 0]
Q2=[0.0 11.0 20.0 35.0 39.0 38.0 27.0 4.0 6.0 8.0 3.0 33.0 0.0 39.0 2.0 3.0 30.0 18.0 6.0 43.0; 0.0 0.0 48.0 0.0 37.0 8.0 1.0 40.0 1.0 6.0 11.0 0.0 39.0 44.0 2.0 42.0 2.0 45.0 38.0 12.0; 0.0 0.0 0.0 44.0 35.0 50.0 43.0 44.0 4.0 12.0 47.0 11.0 42.0 11.0 2.0 1.0 37.0 49.0 7.0 2.0; 0.0 0.0 0.0 0.0 15.0 44.0 43.0 3.0 1.0 48.0 50.0 0.0 49.0 49.0 46.0 11.0 43.0 1.0 1.0 0.0; 0.0 0.0 0.0 0.0 0.0 12.0 36.0 3.0 39.0 1.0 44.0 49.0 37.0 2.0 3.0 2.0 5.0 11.0 2.0 12.0; 0.0 0.0 0.0 0.0 0.0 0.0 37.0 0.0 5.0 6.0 3.0 4.0 45.0 44.0 46.0 7.0 29.0 48.0 39.0 35.0; 0.0 0.0 0.0 0.0 0.0 0.0 0.0 3.0 47.0 4.0 41.0 1.0 42.0 49.0 47.0 43.0 49.0 47.0 18.0 7.0; 0.0 0.0 0.0 0.0 0.0 0.0 0.0 0.0 1.0 5.0 48.0 0.0 43.0 5.0 37.0 34.0 47.0 45.0 43.0 7.0; 0.0 0.0 0.0 0.0 0.0 0.0 0.0 0.0 0.0 45.0 3.0 47.0 7.0 6.0 48.0 1.0 49.0 1.0 2.0 7.0; 0.0 0.0 0.0 0.0 0.0 0.0 0.0 0.0 0.0 0.0 40.0 0.0 1.0 9.0 27.0 46.0 7.0 2.0 0.0 14.0; 0.0 0.0 0.0 0.0 0.0 0.0 0.0 0.0 0.0 0.0 0.0 14.0 5.0 6.0 43.0 1.0 42.0 8.0 10.0 15.0; 0.0 0.0 0.0 0.0 0.0 0.0 0.0 0.0 0.0 0.0 0.0 0.0 39.0 50.0 44.0 50.0 47.0 1.0 2.0 31.0; 0.0 0.0 0.0 0.0 0.0 0.0 0.0 0.0 0.0 0.0 0.0 0.0 0.0 47.0 44.0 48.0 40.0 37.0 0.0 14.0; 0.0 0.0 0.0 0.0 0.0 0.0 0.0 0.0 0.0 0.0 0.0 0.0 0.0 0.0 42.0 2.0 44.0 47.0 9.0 1.0; 0.0 0.0 0.0 0.0 0.0 0.0 0.0 0.0 0.0 0.0 0.0 0.0 0.0 0.0 0.0 3.0 3.0 1.0 41.0 1.0; 0.0 0.0 0.0 0.0 0.0 0.0 0.0 0.0 0.0 0.0 0.0 0.0 0.0 0.0 0.0 0.0 1.0 6.0 45.0 41.0; 0.0 0.0 0.0 0.0 0.0 0.0 0.0 0.0 0.0 0.0 0.0 0.0 0.0 0.0 0.0 0.0 0.0 37.0 36.0 21.0; 0.0 0.0 0.0 0.0 0.0 0.0 0.0 0.0 0.0 0.0 0.0 0.0 0.0 0.0 0.0 0.0 0.0 0.0 3.0 9.0; 0.0 0.0 0.0 0.0 0.0 0.0 0.0 0.0 0.0 0.0 0.0 0.0 0.0 0.0 0.0 0.0 0.0 0.0 0.0 1.0; 0.0 0.0 0.0 0.0 0.0 0.0 0.0 0.0 0.0 0.0 0.0 0.0 0.0 0.0 0.0 0.0 0.0 0.0 0.0 0.0]
